20170623 100 0 0 0
20160707 990 0 0 0
20150518 610 0 0 0
20140424 510 0 0 0
20130527 700 5000 0 0
20120716 400 0 0 0
20110429 250 0 0 0
20100414 350 3000 0 0
20090521 200 5000 0 0
20080527 150 2000 0 0
20070517 150 0 0 0
20060724 0 2760 0 0
20060421 49 0 0 0
20050822 160 0 0 0
20040707 150 0 0 0
20030619 150 0 0 0
20020709 100 0 0 0
